/*********************************************
    * Lab01 - FCD_FCR
    * Author: Coso
    * Creation Date: Mar, 2019
    *********************************************/
instance_name = "small_instance_01_FCD_FCR";

d = 2;
r = 3;

SCj = [80 57];
Fj = [2332, 1886];
Dk = [96 22 14];

Cjk = [[81 51 31]
 [82 47 54]];
Fjk = [[416 768 427]
 [787 375 855]];
